22      4       
16      13      16      16      
0       0       0       0       0       4       2       3       4       5       
1       3       6       1       3       1       8       
3       9       4       4       8       1       6       
9       5       5       7       7       1       17      
10      10      6       9       10      1       7       
3       7       5       2       9       1       11      
3       9       8       1       10      1       9       
3       9       8       7       3       1       12      
3       6       8       5       6       1       10      
10      6       7       4       9       1       14      
10      4       1       9       9       2       13      18      
5       1       10      10      9       1       18      
3       3       5       8       7       1       16      
9       6       4       9       4       1       15      
4       9       10      3       6       1       21      
4       7       3       5       4       1       19      
3       2       4       8       10      1       20      
1       2       7       1       3       1       22      
8       9       1       3       1       1       22      
10      7       5       9       1       1       22      
2       2       10      9       2       1       22      
0       0       0       0       0       0       
